c
c
c
c
c
12 78
0 0 -1
0 1 1
0 2 1
0 3 27
0 4 13
0 5 26
0 6 1
0 7 28
0 8 15
0 9 12
0 10 19
0 11 27
1 1 -1
1 2 1
1 3 26
1 4 16
1 5 23
1 6 5
1 7 2
1 8 27
1 9 23
1 10 9
1 11 26
2 2 -1
2 3 9
2 4 4
2 5 30
2 6 27
2 7 30
2 8 21
2 9 26
2 10 13
2 11 24
3 3 -1
3 4 6
3 5 11
3 6 24
3 7 26
3 8 11
3 9 26
3 10 16
3 11 16
4 4 -1
4 5 19
4 6 24
4 7 4
4 8 5
4 9 21
4 10 12
4 11 17
5 5 -1
5 6 4
5 7 11
5 8 28
5 9 30
5 10 26
5 11 20
6 6 -1
6 7 21
6 8 28
6 9 28
6 10 16
6 11 8
7 7 -1
7 8 7
7 9 6
7 10 13
7 11 3
8 8 -1
8 9 4
8 10 14
8 11 4
9 9 -1
9 10 6
9 11 8
10 10 -1
10 11 18
11 11 -1
